p tw 206 2645
1 67
1 102
1 171
1 187
1 194
1 4
1 8
1 20
1 2
1 108
1 124
1 197
1 29
1 32
1 34
1 188
1 6
1 7
1 9
1 10
1 11
1 12
1 13
1 15
1 16
1 42
1 70
1 71
1 73
1 74
1 93
1 95
1 139
1 176
1 22
1 21
1 132
1 19
1 26
1 18
1 5
1 184
1 186
1 181
1 201
1 180
1 179
1 178
1 177
1 189
1 162
1 175
1 173
1 202
1 170
1 169
1 168
1 167
1 166
1 47
1 25
1 14
1 3
1 185
1 174
1 158
1 192
1 157
1 156
1 155
1 154
1 153
1 151
1 150
1 161
1 159
1 204
1 165
1 164
1 91
1 80
1 69
1 183
1 191
1 122
1 128
1 127
1 126
1 125
1 205
1 149
1 147
1 146
1 145
1 144
1 143
1 142
1 140
1 129
1 206
1 138
1 137
1 135
1 134
1 133
1 121
1 141
1 130
1 190
1 120
1 119
1 118
1 116
1 115
1 112
1 111
1 163
1 203
1 110
1 109
1 107
1 106
1 105
1 103
1 101
1 100
1 99
1 98
1 28
1 27
1 182
1 40
1 39
1 38
1 37
1 199
1 92
1 90
1 89
1 88
1 86
1 85
1 83
1 82
1 81
1 79
1 78
1 77
1 76
1 200
1 66
1 65
1 64
1 63
1 62
1 59
1 57
1 56
1 55
1 54
1 53
1 52
1 51
1 50
1 46
1 45
1 44
1 43
1 33
1 31
1 30
1 36
1 113
1 96
1 84
1 193
1 195
1 72
1 60
1 48
1 35
1 17
1 24
1 23
1 172
1 160
1 148
1 198
1 136
2 108
2 124
2 197
2 29
2 32
2 34
2 188
2 6
2 7
2 9
2 10
2 11
2 12
2 13
2 15
2 16
2 42
2 70
2 71
2 73
2 74
2 93
2 95
2 139
2 176
2 105
2 106
2 107
2 109
2 110
17 96
17 84
17 72
17 60
17 48
17 35
35 60
35 48
48 72
48 60
60 84
60 72
72 96
72 84
84 96
113 36
113 172
113 160
113 148
113 136
36 172
36 160
36 148
36 136
124 197
124 29
124 32
124 34
124 188
124 6
124 7
124 9
124 10
124 11
124 12
124 13
124 15
124 16
124 42
124 70
124 71
124 73
124 74
124 93
124 95
124 139
124 176
124 22
124 19
124 191
124 128
124 183
124 28
124 37
124 182
124 40
136 160
136 148
148 172
148 160
160 172
184 5
197 29
197 32
197 34
197 6
197 7
197 9
197 10
197 11
197 12
197 13
197 15
197 16
197 42
197 70
197 71
197 73
197 74
197 93
197 95
197 19
197 22
197 28
197 37
197 40
27 28
28 40
28 39
28 38
28 37
28 92
28 90
28 89
28 88
28 86
28 85
28 83
28 82
28 81
28 79
28 78
28 77
28 76
28 66
28 65
28 64
28 63
28 62
28 59
28 57
28 56
28 55
28 54
28 53
28 52
28 51
28 50
28 46
28 45
28 44
28 43
28 33
28 31
28 30
29 32
29 34
29 42
29 70
29 71
29 73
29 74
29 93
29 95
29 37
29 40
32 34
32 42
32 70
32 71
32 73
32 74
32 93
32 95
32 37
32 40
34 42
34 70
34 71
34 73
34 74
34 93
34 95
34 105
34 106
34 107
34 109
34 110
34 103
34 37
34 40
37 40
37 39
37 38
37 92
37 90
37 89
37 88
37 86
37 85
37 83
37 82
37 81
37 79
37 78
37 77
37 76
37 43
38 40
38 39
39 40
40 92
40 90
40 89
40 88
40 86
40 85
40 83
40 82
40 81
40 79
40 78
40 77
40 76
40 44
40 43
41 49
41 61
41 68
41 75
41 87
41 94
41 97
41 104
41 117
41 48
41 60
41 72
41 84
41 96
41 43
41 44
41 45
41 46
41 50
41 51
41 52
41 53
41 54
41 55
41 56
41 57
41 59
41 62
41 63
41 64
41 65
41 66
41 76
41 77
41 78
41 79
41 81
41 82
41 83
41 85
41 86
41 88
41 89
41 90
41 92
41 98
41 99
41 100
41 101
41 103
41 105
41 106
41 107
41 109
41 110
41 111
41 112
41 115
41 116
41 118
41 119
41 120
41 95
41 93
41 42
41 74
41 73
41 71
41 70
42 74
42 73
42 71
42 70
43 51
43 50
43 46
43 45
43 44
44 52
44 51
44 50
44 46
44 45
45 46
46 50
49 61
49 68
49 75
49 87
49 94
49 97
49 104
49 117
49 60
49 72
49 84
49 96
49 50
49 51
49 52
49 53
49 54
49 55
49 56
49 57
49 59
49 62
49 63
49 64
49 65
49 66
49 76
49 77
49 78
49 79
49 81
49 82
49 83
49 85
49 86
49 88
49 89
49 90
49 92
49 98
49 99
49 100
49 101
49 103
49 105
49 106
49 107
49 109
49 110
49 111
49 112
49 115
49 116
49 118
49 119
49 120
50 54
50 53
50 52
50 51
51 55
51 54
51 53
51 52
52 56
52 55
52 54
52 53
53 57
53 56
53 55
53 54
54 66
54 65
54 64
54 63
54 62
54 59
54 57
54 56
54 55
55 59
55 57
55 56
56 65
56 64
56 63
56 62
56 59
56 57
57 63
57 62
57 59
59 64
59 63
59 62
61 68
61 75
61 87
61 94
61 97
61 104
61 117
61 72
61 84
61 96
61 62
61 63
61 64
61 65
61 66
61 76
61 77
61 78
61 79
61 81
61 82
61 83
61 85
61 86
61 88
61 89
61 90
61 92
61 98
61 99
61 100
61 101
61 103
61 105
61 106
61 107
61 109
61 110
61 111
61 112
61 115
61 116
61 118
61 119
61 120
62 66
62 65
62 64
62 63
63 66
63 65
63 64
64 66
64 65
65 66
67 108
67 70
67 71
67 73
67 74
67 93
67 95
67 120
67 119
67 118
67 116
67 115
67 112
67 111
67 110
67 109
67 107
67 106
67 105
67 103
67 101
67 100
67 99
67 98
67 92
67 90
67 89
67 88
67 86
67 85
67 83
67 82
67 81
67 79
67 78
67 77
67 76
67 96
67 84
67 72
68 75
68 87
68 94
68 97
68 104
68 117
68 72
68 84
68 96
68 76
68 77
68 78
68 79
68 81
68 82
68 83
68 85
68 86
68 88
68 89
68 90
68 92
68 98
68 99
68 100
68 101
68 103
68 105
68 106
68 107
68 109
68 110
68 111
68 112
68 115
68 116
68 118
68 119
68 120
71 74
71 73
75 87
75 94
75 97
75 104
75 117
75 84
75 96
75 76
75 77
75 78
75 79
75 81
75 82
75 83
75 85
75 86
75 88
75 89
75 90
75 92
75 98
75 99
75 100
75 101
75 103
75 105
75 106
75 107
75 109
75 110
75 111
75 112
75 115
75 116
75 118
75 119
75 120
76 78
76 77
77 79
77 78
78 81
78 79
79 85
79 83
79 82
79 81
81 86
81 85
81 83
81 82
82 83
83 92
83 90
83 89
83 88
83 86
83 85
85 90
85 89
85 88
85 86
86 88
87 94
87 97
87 104
87 117
87 96
87 88
87 89
87 90
87 92
87 98
87 99
87 100
87 101
87 103
87 105
87 106
87 107
87 109
87 110
87 111
87 112
87 115
87 116
87 118
87 119
87 120
88 89
89 92
89 90
90 92
94 97
94 104
94 117
94 96
94 98
94 99
94 100
94 101
94 103
94 105
94 106
94 107
94 109
94 110
94 111
94 112
94 115
94 116
94 118
94 119
94 120
97 104
97 117
97 98
97 99
97 100
97 101
97 103
97 105
97 106
97 107
97 109
97 110
97 111
97 112
97 115
97 116
97 118
97 119
97 120
101 110
101 109
101 107
101 106
101 105
101 103
103 110
103 109
103 107
103 106
103 105
104 117
104 105
104 106
104 107
104 109
104 110
104 111
104 112
104 115
104 116
104 118
104 119
104 120
105 110
105 109
105 107
105 106
106 110
106 109
106 107
107 110
107 109
109 110
111 115
111 112
112 116
112 115
115 120
115 119
115 118
115 116
116 118
117 118
117 119
117 120
118 120
118 119
119 120
141 163
152 196
152 58
152 114
152 123
152 131
152 132
152 162
152 182
152 183
152 186
152 189
152 190
152 191
152 192
152 193
152 195
152 198
152 199
152 200
152 201
152 202
152 203
152 204
152 205
152 206
152 19
152 21
152 22
152 23
152 24
152 17
152 35
152 48
152 60
152 72
152 84
152 96
152 36
152 136
152 148
152 160
152 172
152 184
152 5
152 18
152 26
152 27
152 28
152 30
152 31
152 33
152 37
152 38
152 39
152 40
152 43
152 44
152 45
152 46
152 50
152 51
152 52
152 53
152 54
152 55
152 56
152 57
152 59
152 62
152 63
152 64
152 65
152 66
152 76
152 77
152 78
152 79
152 81
152 82
152 83
152 85
152 86
152 88
152 89
152 90
152 92
152 98
152 99
152 100
152 101
152 103
152 105
152 106
152 107
152 109
152 110
152 111
152 112
152 115
152 116
152 118
152 119
152 120
152 163
152 174
152 185
152 3
152 14
152 25
152 47
152 69
152 80
152 91
152 121
152 122
152 125
152 126
152 127
152 128
152 129
152 133
152 134
152 135
152 137
152 138
152 140
152 142
152 143
152 144
152 145
152 146
152 147
152 149
152 150
152 151
152 153
152 154
152 155
152 156
152 157
152 158
152 159
152 161
152 164
152 165
152 166
152 167
152 168
152 169
152 170
152 173
152 175
152 177
152 178
152 179
152 180
152 181
152 16
152 15
152 13
152 12
152 11
152 10
152 9
152 7
152 6
174 185
196 58
196 114
196 123
196 131
196 132
196 162
196 182
196 183
196 186
196 189
196 190
196 191
196 192
196 193
196 195
196 198
196 199
196 200
196 201
196 202
196 203
196 204
196 205
196 206
196 19
196 21
196 22
196 23
196 24
196 17
196 35
196 48
196 60
196 72
196 84
196 96
196 36
196 136
196 148
196 160
196 172
196 184
196 5
196 18
196 26
196 27
196 28
196 30
196 31
196 33
196 37
196 38
196 39
196 40
196 43
196 44
196 45
196 46
196 50
196 51
196 52
196 53
196 54
196 55
196 56
196 57
196 59
196 62
196 63
196 64
196 65
196 66
196 76
196 77
196 78
196 79
196 81
196 82
196 83
196 85
196 86
196 88
196 89
196 90
196 92
196 98
196 99
196 100
196 101
196 103
196 105
196 106
196 107
196 109
196 110
196 111
196 112
196 115
196 116
196 118
196 119
196 120
196 3
196 14
196 25
196 47
196 69
196 80
196 91
196 121
196 122
196 125
196 126
196 127
196 128
196 129
196 133
196 134
196 135
196 137
196 138
196 140
196 142
196 143
196 144
196 145
196 146
196 147
196 149
196 150
196 151
196 153
196 154
196 155
196 156
196 157
196 158
196 159
196 161
196 164
196 165
196 166
196 167
196 168
196 169
196 170
196 173
196 175
196 177
196 178
196 179
196 180
196 181
196 16
196 15
196 13
196 12
196 11
196 10
196 9
196 7
196 6
3 47
3 25
3 14
14 47
14 25
25 47
47 158
47 157
47 156
47 155
47 154
47 153
47 151
47 150
47 161
47 159
47 165
47 164
47 91
47 80
47 69
47 122
47 128
47 127
47 126
47 125
47 149
47 147
47 146
47 145
47 144
47 143
47 142
47 140
47 129
47 138
47 137
47 135
47 134
47 133
47 121
58 114
58 123
58 131
58 132
58 162
58 182
58 183
58 186
58 189
58 190
58 191
58 192
58 193
58 195
58 198
58 199
58 200
58 201
58 202
58 203
58 204
58 205
58 206
58 19
58 21
58 22
58 23
58 24
58 17
58 35
58 48
58 60
58 72
58 84
58 96
58 136
58 148
58 160
58 172
58 184
58 5
58 18
58 26
58 27
58 28
58 30
58 31
58 33
58 37
58 38
58 39
58 40
58 43
58 44
58 45
58 46
58 50
58 51
58 52
58 53
58 54
58 55
58 56
58 57
58 59
58 62
58 63
58 64
58 65
58 66
58 76
58 77
58 78
58 79
58 81
58 82
58 83
58 85
58 86
58 88
58 89
58 90
58 92
58 98
58 99
58 100
58 101
58 103
58 105
58 106
58 107
58 109
58 110
58 111
58 112
58 115
58 116
58 118
58 119
58 120
58 69
58 80
58 91
58 121
58 122
58 125
58 126
58 127
58 128
58 129
58 133
58 134
58 135
58 137
58 138
58 140
58 142
58 143
58 144
58 145
58 146
58 147
58 149
58 150
58 151
58 153
58 154
58 155
58 156
58 157
58 158
58 159
58 161
58 164
58 165
58 166
58 167
58 168
58 169
58 170
58 173
58 175
58 177
58 178
58 179
58 180
58 181
58 16
58 15
58 13
58 12
58 11
58 10
58 9
58 7
58 6
80 91
102 171
102 187
102 194
102 4
102 8
102 20
102 108
102 124
102 197
102 29
102 32
102 34
102 188
102 6
102 7
102 9
102 10
102 11
102 12
102 13
102 15
102 16
102 42
102 70
102 71
102 73
102 74
102 93
102 95
102 139
102 176
114 123
114 131
114 132
114 162
114 182
114 183
114 186
114 189
114 190
114 191
114 192
114 193
114 195
114 198
114 199
114 200
114 201
114 202
114 203
114 204
114 205
114 206
114 19
114 21
114 22
114 23
114 24
114 17
114 35
114 48
114 60
114 72
114 84
114 96
114 136
114 148
114 160
114 172
114 184
114 5
114 18
114 26
114 27
114 28
114 30
114 31
114 33
114 37
114 38
114 39
114 40
114 43
114 44
114 45
114 46
114 50
114 51
114 52
114 53
114 54
114 55
114 56
114 57
114 59
114 62
114 63
114 64
114 65
114 66
114 76
114 77
114 78
114 79
114 81
114 82
114 83
114 85
114 86
114 88
114 89
114 90
114 92
114 98
114 99
114 100
114 101
114 103
114 105
114 106
114 107
114 109
114 110
114 111
114 112
114 115
114 116
114 118
114 119
114 120
114 121
114 122
114 125
114 126
114 127
114 128
114 129
114 133
114 134
114 135
114 137
114 138
114 140
114 142
114 143
114 144
114 145
114 146
114 147
114 149
114 150
114 151
114 153
114 154
114 155
114 156
114 157
114 158
114 159
114 161
114 164
114 165
114 166
114 167
114 168
114 169
114 170
114 173
114 175
114 177
114 178
114 179
114 180
114 181
114 16
114 15
114 13
114 12
114 11
114 10
114 9
114 7
114 6
123 131
123 132
123 162
123 182
123 183
123 186
123 189
123 190
123 191
123 192
123 193
123 195
123 198
123 199
123 200
123 201
123 202
123 203
123 204
123 205
123 206
123 19
123 21
123 22
123 23
123 24
123 17
123 35
123 48
123 60
123 72
123 84
123 96
123 136
123 148
123 160
123 172
123 184
123 5
123 18
123 26
123 27
123 28
123 30
123 31
123 33
123 37
123 38
123 39
123 40
123 43
123 44
123 45
123 46
123 50
123 51
123 52
123 53
123 54
123 55
123 56
123 57
123 59
123 62
123 63
123 64
123 65
123 66
123 76
123 77
123 78
123 79
123 81
123 82
123 83
123 85
123 86
123 88
123 89
123 90
123 92
123 98
123 99
123 100
123 101
123 103
123 105
123 106
123 107
123 109
123 110
123 111
123 112
123 115
123 116
123 118
123 119
123 120
123 125
123 126
123 127
123 128
123 129
123 133
123 134
123 135
123 137
123 138
123 140
123 142
123 143
123 144
123 145
123 146
123 147
123 149
123 150
123 151
123 153
123 154
123 155
123 156
123 157
123 158
123 159
123 161
123 164
123 165
123 166
123 167
123 168
123 169
123 170
123 173
123 175
123 177
123 178
123 179
123 180
123 181
123 16
123 15
123 13
123 12
123 11
123 10
123 9
123 7
123 6
125 127
125 126
126 128
126 127
127 128
127 145
127 144
127 143
127 142
127 140
128 149
128 147
128 146
128 145
128 144
128 143
128 142
128 140
128 129
128 137
128 135
128 134
128 133
131 132
131 162
131 182
131 183
131 186
131 189
131 190
131 191
131 192
131 193
131 195
131 198
131 199
131 200
131 201
131 202
131 203
131 204
131 205
131 206
131 19
131 21
131 22
131 23
131 24
131 17
131 35
131 48
131 60
131 72
131 84
131 96
131 136
131 148
131 160
131 172
131 184
131 5
131 18
131 26
131 27
131 28
131 30
131 31
131 33
131 37
131 38
131 39
131 40
131 43
131 44
131 45
131 46
131 50
131 51
131 52
131 53
131 54
131 55
131 56
131 57
131 59
131 62
131 63
131 64
131 65
131 66
131 76
131 77
131 78
131 79
131 81
131 82
131 83
131 85
131 86
131 88
131 89
131 90
131 92
131 98
131 99
131 100
131 101
131 103
131 105
131 106
131 107
131 109
131 110
131 111
131 112
131 115
131 116
131 118
131 119
131 120
131 133
131 134
131 135
131 137
131 138
131 140
131 142
131 143
131 144
131 145
131 146
131 147
131 149
131 150
131 151
131 153
131 154
131 155
131 156
131 157
131 158
131 159
131 161
131 164
131 165
131 166
131 167
131 168
131 169
131 170
131 173
131 175
131 177
131 178
131 179
131 180
131 181
131 16
131 15
131 13
131 12
131 11
131 10
131 9
131 7
131 6
132 22
132 21
132 19
132 26
132 18
132 5
132 184
132 186
132 181
132 201
132 180
132 179
132 178
132 177
132 28
132 27
132 182
132 40
132 39
132 38
132 37
132 199
132 92
132 90
132 89
132 88
132 86
132 85
132 83
132 82
132 81
132 79
132 78
132 77
132 76
132 200
132 66
132 65
132 64
132 63
132 62
132 59
132 57
132 56
132 55
132 54
132 53
132 52
132 51
132 50
132 46
132 45
132 44
132 43
132 33
132 31
132 30
132 96
132 84
132 193
132 195
132 72
132 60
132 48
132 35
132 17
132 24
132 23
132 172
132 160
132 148
132 198
132 136
133 134
134 138
134 137
134 135
137 138
140 142
142 149
142 147
142 146
142 145
142 144
142 143
143 144
144 149
144 147
144 146
144 145
145 147
145 146
146 149
146 147
147 149
150 154
150 153
150 151
151 155
151 154
151 153
153 158
153 157
153 156
153 155
153 154
153 161
153 159
153 165
153 164
154 155
155 156
156 157
157 158
157 161
157 159
157 165
157 164
158 161
158 159
158 165
158 164
159 161
161 164
162 189
162 19
162 22
162 175
162 173
162 202
162 170
162 169
162 168
162 167
162 166
162 192
162 204
162 165
162 164
162 183
162 191
162 205
162 206
162 190
162 120
162 119
162 118
162 116
162 115
162 112
162 111
162 203
162 98
164 165
166 167
167 175
167 173
167 170
167 169
167 168
169 175
169 173
169 170
170 173
171 187
171 194
171 4
171 8
171 20
171 108
171 197
171 29
171 32
171 34
171 188
171 6
171 7
171 9
171 10
171 11
171 12
171 13
171 15
171 16
171 42
171 70
171 71
171 73
171 74
171 93
171 95
171 176
173 175
177 178
178 181
178 180
178 179
180 181
182 22
182 19
182 186
182 28
182 40
182 39
182 38
182 37
182 199
182 92
182 90
182 89
182 88
182 86
182 85
182 83
182 82
182 81
182 79
182 78
182 77
182 76
182 200
182 66
182 65
182 64
182 63
182 62
182 59
182 57
182 56
182 55
182 54
182 53
182 52
182 51
182 50
182 46
182 45
182 44
182 43
183 22
183 19
183 191
183 189
183 205
183 206
186 19
186 22
186 201
186 28
186 40
186 39
186 38
186 37
186 199
186 92
186 90
186 89
186 88
186 86
186 85
186 83
186 82
186 81
186 79
186 78
186 77
186 76
186 200
186 66
186 65
186 64
186 63
186 62
186 59
186 57
186 56
186 55
186 54
186 53
186 52
186 51
186 50
186 46
186 45
186 44
186 43
186 33
186 31
186 30
187 194
187 4
187 8
187 20
187 108
187 197
187 29
187 32
187 34
187 188
187 6
187 7
187 9
187 10
187 11
187 12
187 13
187 15
187 16
187 42
187 70
187 71
187 73
187 74
187 93
187 95
188 16
188 15
188 13
188 12
188 11
188 10
188 9
188 7
188 6
189 22
189 19
189 202
189 192
189 204
189 191
189 206
189 190
189 120
189 119
189 118
189 116
189 115
189 112
189 111
189 203
190 119
190 115
190 19
190 118
190 203
190 120
191 22
191 19
191 205
191 206
192 22
192 19
192 204
193 96
193 84
193 72
193 48
193 22
193 19
193 195
193 60
193 198
193 17
194 4
194 8
194 20
194 108
194 197
194 29
194 32
194 34
194 6
194 7
194 9
194 10
194 11
194 12
194 13
194 15
194 16
194 42
194 70
194 71
194 73
194 74
194 93
194 95
194 110
195 96
195 84
195 17
195 72
195 48
195 22
195 19
195 60
195 198
198 72
198 17
198 22
198 19
199 92
199 90
199 89
199 83
199 40
199 37
199 28
199 22
199 19
200 66
200 65
200 64
200 63
200 62
200 54
200 28
200 22
200 19
201 22
201 19
202 22
202 19
203 120
203 119
203 115
203 19
204 22
204 19
205 22
205 19
206 22
206 19
4 8
4 20
4 108
4 29
4 32
4 34
4 6
4 7
4 9
4 10
4 11
4 12
4 13
4 15
4 16
4 42
4 70
4 71
4 73
4 74
4 93
4 95
4 109
4 110
6 16
6 15
6 13
6 12
6 11
6 10
6 9
6 7
6 95
6 93
6 42
6 74
6 73
6 71
6 70
7 16
7 15
7 13
7 12
7 11
7 10
7 9
7 95
7 93
7 42
7 74
7 73
7 71
7 70
8 20
8 108
8 29
8 32
8 34
8 9
8 10
8 11
8 12
8 13
8 15
8 16
8 42
8 70
8 71
8 73
8 74
8 93
8 95
8 107
8 109
8 110
9 16
9 15
9 13
9 12
9 11
9 10
9 95
9 93
9 42
9 74
9 73
9 71
9 70
10 16
10 15
10 13
10 12
10 11
10 95
10 93
10 42
10 74
10 73
10 71
10 70
11 16
11 15
11 13
11 12
11 95
11 93
11 42
11 74
11 73
11 71
11 70
12 16
12 15
12 13
12 95
12 93
12 42
12 74
12 73
12 71
12 70
13 16
13 15
13 95
13 93
13 42
13 74
13 73
13 71
13 70
15 16
15 95
15 93
15 42
15 74
15 73
15 71
15 70
16 95
16 93
16 42
16 74
16 73
16 71
16 70
19 22
19 21
19 26
19 120
19 119
19 118
19 116
19 115
19 112
19 111
19 98
19 28
19 27
19 40
19 39
19 38
19 37
19 92
19 90
19 89
19 88
19 86
19 85
19 83
19 82
19 81
19 79
19 78
19 77
19 76
19 66
19 65
19 64
19 63
19 62
19 59
19 57
19 56
19 55
19 54
19 53
19 52
19 51
19 50
19 46
19 45
19 44
19 43
19 33
19 31
19 30
19 96
19 84
19 72
19 60
19 48
19 35
19 24
19 23
20 108
20 29
20 32
20 34
20 42
20 70
20 71
20 73
20 74
20 93
20 95
20 106
20 107
20 109
20 110
21 22
22 26
22 28
22 27
22 40
22 39
22 38
22 37
22 92
22 90
22 89
22 88
22 86
22 85
22 83
22 82
22 81
22 79
22 78
22 77
22 76
22 66
22 65
22 64
22 63
22 62
22 59
22 57
22 56
22 55
22 54
22 53
22 52
22 51
22 50
22 46
22 45
22 44
22 43
22 33
22 31
22 30
22 96
22 84
22 72
22 60
22 48
22 35
22 24
22 23
23 24
24 48
24 35
